Fe4                                     
   1.00000000000000     
    10.7797357384774966    0.0000000000000000    0.0000000000000000
     0.0000000000000000   10.7797357384774966    0.0000000000000000
     0.0000000000000000    0.0000000000000000   10.7797357384774966
   Fe
   108
Direct
  0.0018518467825932  0.0223606226931844  0.0157410810988535
 -0.0181020504035401  0.0113000002015997  0.3229136567752400
 -0.0212147006070749  0.0036132292743659  0.6274394444808935
  0.0120989308987017  0.3307496119334061 -0.0185691828527558
  0.0106867035948389  0.3554499323932051  0.3507756846253157
 -0.0096288141311714  0.3445110999173771  0.6591846324500173
 -0.0004109827942328  0.6485421384344054 -0.0004544873608350
  0.0039743898897757  0.6390136865192518  0.3256134020835606
 -0.0162839442872647  0.6823095433221520  0.6768892949636630
  0.3251654817300622  0.0126859360419961  0.0218587368654073
  0.3408363933031777 -0.0015292029038759  0.3426459366407169
  0.3341713418830810 -0.0240263667075311  0.6365376819652856
  0.3328951451343073  0.3127724188690428 -0.0182360073174168
  0.3424828393445202  0.3504753095113501  0.3655919064845001
  0.3533858285836649  0.3327891076474425  0.6595868779757449
  0.3456011302028126  0.6657981078600157  0.0082955097498861
  0.3430542326714963  0.6544201293121592  0.3174121887364739
  0.3347579622553776  0.6926847944589565  0.6790957695379634
  0.6667785425213726  0.0081155673566735  0.0148109622139296
  0.6744752806137734 -0.0070201671963515  0.3215000176870539
  0.6683922004408843 -0.0159123026630722  0.6667911862791476
  0.6518406588426831  0.2998749550786847 -0.0098644467255505
  0.6585456624824754  0.3457841071833554  0.3552019241465926
  0.6591693588729463  0.3245830046148997  0.6795997943245706
  0.6733754112008217  0.6740224492591809 -0.0057049338813601
  0.6789385155723696  0.6493106236523303  0.3160286322889124
  0.6735746454595363  0.7027990483345729  0.6954696880685086
  0.0055724530952394  0.1946537591912497  0.1785620428327130
 -0.0167517571514003  0.1822689359483265  0.4990475582573710
  0.0189252329181196  0.1671036234843130  0.8099535166073876
  0.0153051437065634  0.4824247179491810  0.1634015193323206
 -0.0025081113936554  0.5081935292915288  0.5111062788967980
  0.0007346445719714  0.4959593820362426  0.8201518024713772
 -0.0058274962947570  0.8190402070626808  0.1596216386322531
 -0.0101967249082661  0.8215894623451241  0.4627240674364788
  0.0163364741178322  0.8398165538460834  0.8544604630852981
  0.3384184849011199  0.1720667896973958  0.1980316215242949
  0.3453093865447508  0.1657326481839995  0.5103797968793242
  0.3256576863607902  0.1525507470626522  0.8244704210297767
  0.3460034363183627  0.4774340996154551  0.1650203951366881
  0.3267862188591771  0.5276975620875213  0.5179047511680761
  0.3236465051830495  0.5048960008345628  0.8228398849810589
  0.3255648225249541  0.8347082645785031  0.1635597592273443
  0.3258296484548329  0.8149786223363681  0.4702922319858678
  0.3156323477829450  0.8495457029503761  0.8364242526894761
  0.6624627044000315  0.1811816129384845  0.1831727675695045
  0.6694545234770067  0.1640132823584367  0.5041245979764404
  0.6747170172075870  0.1432462107691304  0.8232622149431331
  0.6467390249083487  0.4782788123774678  0.1451589657784567
  0.6609496601136912  0.5359578934510766  0.5200199646410681
  0.6505130485789656  0.4954727944448229  0.8422921958313020
  0.6777007895074230  0.8320856846578290  0.1599677186756596
  0.6635860620859811  0.8193417083673147  0.4839379051417585
  0.6893612278455774  0.8560268458156105  0.8613530599889511
  0.1595163352258743  0.0136619965021723  0.1902448644801984
  0.1563216594531456 -0.0207792733376526  0.4760883523351453
  0.1649047032033434  0.0095977183363431  0.8218590509789737
  0.1799966190822746  0.3364091962207806  0.1767131866521805
  0.1825505340190587  0.3360981813380322  0.5166908063624537
  0.1799181187536949  0.3151659624639022  0.8079038536703739
  0.1804000738987816  0.6358871967409258  0.1426111211828071
  0.1589342986526200  0.6684883679045330  0.5037400019875685
  0.1784081350038810  0.6685284742475587  0.8566178772077224
  0.5051699904470233  0.0078594368075935  0.1800914737713360
  0.5120709320809712 -0.0323133460255265  0.4852763562151281
  0.4977918794986337  0.0019599986623307  0.8330393720754422
  0.4898042723774450  0.3162694085040217  0.1816544528249457
  0.5120676772305246  0.3377602299571503  0.5206208992772031
  0.4934182678144357  0.3194218605296213  0.8225445382711339
  0.5071766857715546  0.6504540917804382  0.1459425922847751
  0.4967959047853430  0.6792879652680893  0.4918531767281772
  0.5075808237979387  0.6936764718634253  0.8497629000015552
  0.8351099809556379  0.0251106883199838  0.1646878255935356
  0.8157447071525346 -0.0100288943095135  0.4786902976513479
  0.8611458761004421  0.0190667346962556  0.8277536344356140
  0.8289823283608087  0.3492245147742993  0.1560515948879021
  0.8210460511149548  0.3661524487944141  0.5188543593271872
  0.8219339304382968  0.3226728936317508  0.8246510326971351
  0.8280386611835598  0.6297532274059722  0.1540876120285234
  0.8370814042515059  0.6662205289210131  0.5117758704449648
  0.8373189950370945  0.6605465487426052  0.8510516103876326
  0.1708860598765917  0.1645150181968016 -0.0014158346669004
  0.1672799317957979  0.1799949395285759  0.3684918396205667
  0.1692561903615277  0.1483190531928983  0.6372016862765459
  0.1751963127360313  0.4766740517833576 -0.0094778966878293
  0.1755689137796954  0.5015750309122788  0.3394989643385861
  0.1620626723671368  0.5120316775694863  0.6787475661029349
  0.1567434088575826  0.8452091805709810  0.0197081638504799
  0.1594553568306417  0.8094161795412915  0.3099030216005780
  0.1490325085770424  0.8324416937232640  0.6623573474910198
  0.4900007792097261  0.1652369167620562 -0.0007735766914970
  0.5016903261047625  0.1723552421397340  0.3554639512574994
  0.5068555603159695  0.1479729112693026  0.6683473448563731
  0.4867209773444611  0.4881091816912841 -0.0201726134090153
  0.4999368729396371  0.4931442231379304  0.3549733491192088
  0.5108007776979134  0.5447378930065673  0.6795518998751872
  0.4842696417403668  0.8593452103049812  0.0061253089811753
  0.5077930363301489  0.8143009228968211  0.3077732209428623
  0.5064317606007935  0.8427935513946803  0.6683419144210333
  0.8310293894488087  0.1819801979120726 -0.0010107420182159
  0.8256461521394749  0.1910178872558781  0.3322640852721431
  0.8206855661925816  0.1696746729699744  0.6565516058176196
  0.8296536521273776  0.4696581904536111 -0.0139257012028622
  0.8335087656542877  0.4894776016440345  0.3331170350231661
  0.8001410472526040  0.5076874002715926  0.6813485446879273
  0.8505427984345725  0.8396277257129283  0.0171397620292386
  0.8259481969404853  0.8088526061816447  0.3093619808112698
  0.8433003048783306  0.8459556431548892  0.6722529845154076
 
 -0.63953133E-02  0.26837044E-02 -0.33525452E-02
 -0.16425744E-02 -0.43713090E-02  0.18696237E-03
 -0.78394059E-03 -0.29896376E-02  0.39560369E-04
  0.14188190E-02 -0.26728006E-02 -0.29425623E-02
 -0.86501331E-04  0.25922320E-02  0.15226755E-02
 -0.14807642E-02  0.23583647E-02  0.10339435E-02
 -0.20298792E-02  0.35597239E-02 -0.10234754E-02
 -0.16462068E-02 -0.30737195E-02 -0.19303589E-02
 -0.22853435E-02  0.18551643E-02 -0.27504809E-03
 -0.22817089E-02  0.36454964E-02 -0.14219495E-03
 -0.21310829E-02  0.21624013E-02  0.73720404E-03
  0.78721624E-03  0.43876316E-03  0.85749423E-03
  0.50016459E-02 -0.37737330E-03 -0.66151384E-03
  0.11634901E-02  0.93721336E-03  0.26013125E-03
  0.21272366E-02  0.29640049E-03 -0.13385231E-03
  0.35786137E-02  0.16970908E-03  0.26596400E-02
  0.11877602E-02  0.42346642E-02  0.15296389E-02
 -0.65665140E-03 -0.27743914E-03  0.17585083E-02
 -0.39944470E-02  0.21211152E-02 -0.63906831E-03
  0.47635246E-02 -0.19049550E-02  0.54547258E-03
  0.27276826E-02 -0.52137410E-02  0.41725091E-03
  0.13214346E-02  0.91042368E-03 -0.42308685E-02
  0.67868311E-02 -0.47023617E-02  0.52869671E-03
  0.31820920E-02  0.19175927E-02  0.17693782E-02
 -0.23490172E-02  0.26983255E-02 -0.27053056E-02
  0.93806830E-03 -0.14919988E-02 -0.42901314E-02
 -0.16455998E-02  0.32262928E-03  0.25991720E-02
 -0.38127209E-02 -0.20261621E-02 -0.89033976E-03
 -0.27373195E-02 -0.29358752E-03  0.21343953E-02
  0.41900028E-03  0.25748111E-02 -0.18459709E-02
  0.26265581E-02  0.24985145E-02 -0.41950753E-03
 -0.41685455E-02 -0.14042624E-02  0.16352599E-02
  0.48836785E-02  0.51224718E-02 -0.10572380E-02
  0.68668607E-03  0.29079948E-02 -0.77173801E-03
 -0.14548677E-02 -0.57254821E-02 -0.54011572E-04
 -0.97424570E-03  0.29448950E-02  0.18783037E-02
 -0.67966538E-02  0.12093650E-03  0.73483626E-02
 -0.26648907E-03 -0.11038392E-02  0.80241966E-03
  0.32684139E-03 -0.26000273E-02 -0.16153307E-02
 -0.55425054E-03 -0.46420141E-02 -0.26675599E-02
  0.28549036E-02 -0.18687820E-02 -0.30995952E-02
  0.26656929E-02  0.56572629E-02 -0.13956202E-02
  0.44538481E-02  0.38794270E-02 -0.54963530E-03
  0.60158845E-02  0.15774885E-02  0.21883023E-02
  0.15228770E-02 -0.31635499E-02  0.76479174E-03
 -0.26988262E-02  0.30255725E-02 -0.10714578E-02
 -0.23607645E-03  0.19709830E-02  0.22303300E-02
 -0.59870085E-02  0.16051067E-02  0.25690756E-02
 -0.10626782E-02  0.30625922E-02 -0.59274539E-02
 -0.25802453E-02 -0.91176665E-03 -0.37997499E-02
  0.19447620E-02  0.50724907E-02 -0.31451465E-03
 -0.21266155E-02  0.15906835E-02 -0.19089282E-02
  0.11011143E-04  0.46130238E-03  0.15997365E-02
 -0.16647232E-02  0.10435708E-02  0.80286776E-03
  0.16369178E-02  0.32903712E-02  0.12288985E-02
 -0.40434955E-02 -0.14392483E-02 -0.58189077E-06
  0.13772707E-02 -0.16701463E-02  0.19659038E-02
 -0.20378438E-03  0.36763316E-02  0.13385616E-02
 -0.72728372E-03  0.16660607E-02 -0.14147295E-02
 -0.67753898E-03 -0.71282116E-04 -0.18185728E-04
  0.29907980E-02 -0.11905439E-02  0.15981532E-02
 -0.86433525E-03  0.47345004E-03  0.26530179E-02
 -0.25277134E-02  0.12926181E-02 -0.29466810E-02
  0.33514386E-03  0.72746293E-02 -0.26796348E-02
  0.34080413E-02 -0.16813233E-02  0.21735935E-02
 -0.22877864E-02 -0.31804577E-02 -0.29092585E-02
 -0.25385504E-02 -0.73607651E-02  0.27707315E-02
 -0.14653605E-02 -0.31276859E-02 -0.48581002E-02
  0.44044524E-02 -0.86219592E-03 -0.32809985E-02
  0.86596558E-04  0.65511669E-03  0.11378619E-02
  0.64248949E-03  0.39144753E-02  0.72879998E-03
 -0.39512968E-02 -0.28246660E-02 -0.46738056E-02
 -0.21692804E-02  0.16114835E-02 -0.26510433E-02
 -0.63689080E-02 -0.45244936E-03  0.11670501E-02
  0.38674347E-02  0.19584753E-02  0.16562040E-02
 -0.29329041E-02  0.10586518E-02 -0.27786927E-02
  0.19773797E-02  0.43795017E-02  0.29887233E-02
  0.47580638E-02 -0.45749903E-02  0.94162236E-04
 -0.18926202E-02 -0.16218729E-02  0.17100047E-03
 -0.24776943E-02 -0.17494966E-02 -0.25625408E-03
  0.35172924E-04 -0.66509416E-03  0.11875648E-02
  0.24490863E-02  0.11028857E-02 -0.27121361E-02
  0.12889040E-03  0.41726132E-02  0.49739850E-02
 -0.39038869E-02  0.29118636E-02  0.86960929E-02
  0.83355174E-03  0.48434751E-02  0.15841869E-02
 -0.40163342E-03 -0.56344461E-03  0.37340224E-02
  0.35022507E-02 -0.23343385E-02 -0.33704370E-02
 -0.32180527E-03 -0.66587161E-03  0.31029669E-02
  0.17679026E-02 -0.74015086E-03  0.50260361E-03
  0.41645043E-03 -0.23489914E-02 -0.18767780E-03
 -0.66564856E-03  0.31692031E-03 -0.17557121E-02
 -0.57127079E-03 -0.44294800E-02 -0.89767935E-03
  0.61192805E-03 -0.26103459E-02 -0.38305788E-02
 -0.71806093E-03 -0.31418691E-02 -0.36636862E-02
  0.34038278E-02 -0.23378752E-02 -0.15872691E-02
 -0.19040409E-02 -0.39422582E-02  0.87870107E-03
 -0.13631122E-02  0.22112507E-02  0.22241219E-02
  0.31629784E-02 -0.40301244E-02  0.75552791E-03
 -0.61046345E-03 -0.41581761E-02  0.30207083E-02
  0.58250196E-03  0.32990950E-02 -0.57465403E-03
 -0.21991330E-03  0.42738678E-02  0.40737264E-02
 -0.10547083E-02 -0.57800198E-02 -0.24024578E-03
  0.22711979E-02 -0.18980162E-02 -0.51928557E-02
  0.57582966E-03 -0.27501055E-02  0.43718277E-02
  0.29375079E-02  0.17536076E-02 -0.55641810E-02
  0.50599759E-02 -0.33356721E-04  0.38843359E-02
  0.82943873E-03 -0.66391756E-02  0.10746847E-03
 -0.40558450E-02 -0.24661451E-02  0.25905794E-02
 
           1
   1.00000000000000     
 -0.30933301E+00  0.91162761E-04 -0.16334548E-03 -0.30929692E+00
  0.12585750E-02  0.22609581E-01  0.15430077E-01
  0.98174557E+00  0.10894488E-01  0.32293100E+00
  0.97871258E+00  0.33358906E-02  0.62744311E+00
  0.12230550E-01  0.33050167E+00  0.98115785E+00
  0.10678679E-01  0.35569041E+00  0.35091694E+00
  0.99023382E+00  0.34472988E+00  0.65928055E+00
  0.99940071E+00  0.64887236E+00  0.99945057E+00
  0.38216768E-02  0.63872855E+00  0.32543433E+00
  0.98350405E+00  0.68248164E+00  0.67686378E+00
  0.32495382E+00  0.13024117E-01  0.21845546E-01
  0.34063870E+00  0.99867140E+00  0.34271432E+00
  0.33424437E+00  0.97601434E+00  0.63661723E+00
  0.33335913E+00  0.31273741E+00  0.98170263E+00
  0.34259077E+00  0.35056225E+00  0.36561604E+00
  0.35358317E+00  0.33281660E+00  0.65957446E+00
  0.34593311E+00  0.66581385E+00  0.85422356E-02
  0.34316442E+00  0.65481296E+00  0.31755409E+00
  0.33469705E+00  0.69265906E+00  0.67925890E+00
  0.66640799E+00  0.83123361E-02  0.14751678E-01
  0.67491718E+00  0.99280312E+00  0.32155062E+00
  0.66864524E+00  0.98360404E+00  0.66682989E+00
  0.65196324E+00  0.29995941E+00  0.98974307E+00
  0.65917525E+00  0.34534788E+00  0.35525097E+00
  0.65946455E+00  0.32476089E+00  0.67976393E+00
  0.67315750E+00  0.67427276E+00  0.99404410E+00
  0.67902554E+00  0.64917222E+00  0.31563065E+00
  0.67342199E+00  0.70282898E+00  0.69571080E+00
  0.52187597E-02  0.19446580E+00  0.17847945E+00
  0.98299431E+00  0.18224170E+00  0.49924556E+00
  0.18964102E-01  0.16734248E+00  0.80978227E+00
  0.15548801E-01  0.48265650E+00  0.16336260E+00
  0.99710519E+00  0.50806326E+00  0.51125798E+00
  0.11876871E-02  0.49643458E+00  0.82005373E+00
  0.99423621E+00  0.81930997E+00  0.15955005E+00
  0.98966831E+00  0.82105833E+00  0.46271906E+00
  0.16246097E-01  0.84008974E+00  0.85463471E+00
  0.33778798E+00  0.17207801E+00  0.19871330E+00
  0.34528467E+00  0.16563025E+00  0.51045423E+00
  0.32568801E+00  0.15230955E+00  0.82432057E+00
  0.34595202E+00  0.47700348E+00  0.16477293E+00
  0.32705106E+00  0.52752420E+00  0.51761721E+00
  0.32389379E+00  0.50542081E+00  0.82271042E+00
  0.32597799E+00  0.83506815E+00  0.16350877E+00
  0.32638772E+00  0.81512496E+00  0.47049523E+00
  0.31577362E+00  0.84925223E+00  0.83649520E+00
  0.66221234E+00  0.18146229E+00  0.18307337E+00
  0.66943262E+00  0.16419612E+00  0.50433150E+00
  0.67416162E+00  0.14339511E+00  0.82350054E+00
  0.64664044E+00  0.47856292E+00  0.14460910E+00
  0.66071030E+00  0.53587331E+00  0.51966747E+00
  0.65069346E+00  0.49594335E+00  0.84226302E+00
  0.67750351E+00  0.83223325E+00  0.15979063E+00
  0.66358708E+00  0.81938450E+00  0.48408631E+00
  0.68920680E+00  0.85612365E+00  0.86142754E+00
  0.15966819E+00  0.13967233E-01  0.19035887E+00
  0.15594656E+00  0.97908721E+00  0.47608830E+00
  0.16503247E+00  0.94427845E-02  0.82204142E+00
  0.17997771E+00  0.33675024E+00  0.17683736E+00
  0.18248307E+00  0.33625274E+00  0.51655957E+00
  0.17985527E+00  0.31515935E+00  0.80790217E+00
  0.18067752E+00  0.63577675E+00  0.14275938E+00
  0.15885412E+00  0.66853229E+00  0.50398611E+00
  0.17817365E+00  0.66864839E+00  0.85634452E+00
  0.50520108E+00  0.85342798E-02  0.17984289E+00
  0.51238708E+00  0.96753068E+00  0.48547799E+00
  0.49757965E+00  0.16649582E-02  0.83276949E+00
  0.48956878E+00  0.31558657E+00  0.18191148E+00
  0.51193174E+00  0.33747009E+00  0.52017023E+00
  0.49382685E+00  0.31934188E+00  0.82224017E+00
  0.50718472E+00  0.65051486E+00  0.14604815E+00
  0.49685551E+00  0.67965110E+00  0.49192079E+00
  0.50721428E+00  0.69341444E+00  0.84932933E+00
  0.83490874E+00  0.25260180E-01  0.16444190E+00
  0.81515388E+00  0.98992913E+00  0.47879856E+00
  0.86150465E+00  0.19248416E-01  0.82790727E+00
  0.82871025E+00  0.34932272E+00  0.15579382E+00
  0.82122949E+00  0.36655872E+00  0.51913161E+00
  0.82237532E+00  0.32224849E+00  0.82465977E+00
  0.82786309E+00  0.62960277E+00  0.15410348E+00
  0.83685156E+00  0.66605823E+00  0.51175210E+00
  0.83732226E+00  0.66048485E+00  0.85116178E+00
  0.17111325E+00  0.16461733E+00  0.99833257E+00
  0.16729189E+00  0.18038202E+00  0.36895326E+00
  0.16889404E+00  0.14858918E+00  0.63800839E+00
  0.17527364E+00  0.47712336E+00  0.99066906E+00
  0.17553166E+00  0.50152276E+00  0.33984536E+00
  0.16238756E+00  0.51181513E+00  0.67843490E+00
  0.15671356E+00  0.84514741E+00  0.19996016E-01
  0.15961936E+00  0.80934752E+00  0.30994965E+00
  0.14907114E+00  0.83222379E+00  0.66233994E+00
  0.48993903E+00  0.16526632E+00  0.99906355E+00
  0.50163733E+00  0.17194433E+00  0.35538068E+00
  0.50691233E+00  0.14773076E+00  0.66799199E+00
  0.48665437E+00  0.48781772E+00  0.97948752E+00
  0.50025263E+00  0.49292735E+00  0.35482610E+00
  0.51062415E+00  0.54437218E+00  0.67963341E+00
  0.48414319E+00  0.85955034E+00  0.63316333E-02
  0.50808646E+00  0.81392706E+00  0.30784331E+00
  0.50637513E+00  0.84240781E+00  0.66862214E+00
  0.83108343E+00  0.18228624E+00  0.99893595E+00
  0.82562575E+00  0.19141436E+00  0.33264199E+00
  0.82058772E+00  0.16913848E+00  0.65652932E+00
  0.82986434E+00  0.46948212E+00  0.98559257E+00
  0.83356218E+00  0.48922248E+00  0.33352259E+00
  0.80041355E+00  0.50785008E+00  0.68083237E+00
  0.85101220E+00  0.83962463E+00  0.17500099E-01
  0.82602514E+00  0.80823671E+00  0.30937195E+00
  0.84292406E+00  0.84572687E+00  0.67249330E+00
  0.00000000E+00  0.00000000E+00  0.00000000E+00
  0.00000000E+00  0.00000000E+00  0.00000000E+00
  0.00000000E+00  0.00000000E+00  0.00000000E+00
  0.00000000E+00  0.00000000E+00  0.00000000E+00
  0.00000000E+00  0.00000000E+00  0.00000000E+00
  0.00000000E+00  0.00000000E+00  0.00000000E+00
  0.00000000E+00  0.00000000E+00  0.00000000E+00
  0.00000000E+00  0.00000000E+00  0.00000000E+00
  0.00000000E+00  0.00000000E+00  0.00000000E+00
  0.00000000E+00  0.00000000E+00  0.00000000E+00
  0.00000000E+00  0.00000000E+00  0.00000000E+00
  0.00000000E+00  0.00000000E+00  0.00000000E+00
  0.00000000E+00  0.00000000E+00  0.00000000E+00
  0.00000000E+00  0.00000000E+00  0.00000000E+00
  0.00000000E+00  0.00000000E+00  0.00000000E+00
  0.00000000E+00  0.00000000E+00  0.00000000E+00
  0.00000000E+00  0.00000000E+00  0.00000000E+00
  0.00000000E+00  0.00000000E+00  0.00000000E+00
  0.00000000E+00  0.00000000E+00  0.00000000E+00
  0.00000000E+00  0.00000000E+00  0.00000000E+00
  0.00000000E+00  0.00000000E+00  0.00000000E+00
  0.00000000E+00  0.00000000E+00  0.00000000E+00
  0.00000000E+00  0.00000000E+00  0.00000000E+00
  0.00000000E+00  0.00000000E+00  0.00000000E+00
  0.00000000E+00  0.00000000E+00  0.00000000E+00
  0.00000000E+00  0.00000000E+00  0.00000000E+00
  0.00000000E+00  0.00000000E+00  0.00000000E+00
  0.00000000E+00  0.00000000E+00  0.00000000E+00
  0.00000000E+00  0.00000000E+00  0.00000000E+00
  0.00000000E+00  0.00000000E+00  0.00000000E+00
  0.00000000E+00  0.00000000E+00  0.00000000E+00
  0.00000000E+00  0.00000000E+00  0.00000000E+00
  0.00000000E+00  0.00000000E+00  0.00000000E+00
  0.00000000E+00  0.00000000E+00  0.00000000E+00
  0.00000000E+00  0.00000000E+00  0.00000000E+00
  0.00000000E+00  0.00000000E+00  0.00000000E+00
  0.00000000E+00  0.00000000E+00  0.00000000E+00
  0.00000000E+00  0.00000000E+00  0.00000000E+00
  0.00000000E+00  0.00000000E+00  0.00000000E+00
  0.00000000E+00  0.00000000E+00  0.00000000E+00
  0.00000000E+00  0.00000000E+00  0.00000000E+00
  0.00000000E+00  0.00000000E+00  0.00000000E+00
  0.00000000E+00  0.00000000E+00  0.00000000E+00
  0.00000000E+00  0.00000000E+00  0.00000000E+00
  0.00000000E+00  0.00000000E+00  0.00000000E+00
  0.00000000E+00  0.00000000E+00  0.00000000E+00
  0.00000000E+00  0.00000000E+00  0.00000000E+00
  0.00000000E+00  0.00000000E+00  0.00000000E+00
  0.00000000E+00  0.00000000E+00  0.00000000E+00
  0.00000000E+00  0.00000000E+00  0.00000000E+00
  0.00000000E+00  0.00000000E+00  0.00000000E+00
  0.00000000E+00  0.00000000E+00  0.00000000E+00
  0.00000000E+00  0.00000000E+00  0.00000000E+00
  0.00000000E+00  0.00000000E+00  0.00000000E+00
  0.00000000E+00  0.00000000E+00  0.00000000E+00
  0.00000000E+00  0.00000000E+00  0.00000000E+00
  0.00000000E+00  0.00000000E+00  0.00000000E+00
  0.00000000E+00  0.00000000E+00  0.00000000E+00
  0.00000000E+00  0.00000000E+00  0.00000000E+00
  0.00000000E+00  0.00000000E+00  0.00000000E+00
  0.00000000E+00  0.00000000E+00  0.00000000E+00
  0.00000000E+00  0.00000000E+00  0.00000000E+00
  0.00000000E+00  0.00000000E+00  0.00000000E+00
  0.00000000E+00  0.00000000E+00  0.00000000E+00
  0.00000000E+00  0.00000000E+00  0.00000000E+00
  0.00000000E+00  0.00000000E+00  0.00000000E+00
  0.00000000E+00  0.00000000E+00  0.00000000E+00
  0.00000000E+00  0.00000000E+00  0.00000000E+00
  0.00000000E+00  0.00000000E+00  0.00000000E+00
  0.00000000E+00  0.00000000E+00  0.00000000E+00
  0.00000000E+00  0.00000000E+00  0.00000000E+00
  0.00000000E+00  0.00000000E+00  0.00000000E+00
  0.00000000E+00  0.00000000E+00  0.00000000E+00
  0.00000000E+00  0.00000000E+00  0.00000000E+00
  0.00000000E+00  0.00000000E+00  0.00000000E+00
  0.00000000E+00  0.00000000E+00  0.00000000E+00
  0.00000000E+00  0.00000000E+00  0.00000000E+00
  0.00000000E+00  0.00000000E+00  0.00000000E+00
  0.00000000E+00  0.00000000E+00  0.00000000E+00
  0.00000000E+00  0.00000000E+00  0.00000000E+00
  0.00000000E+00  0.00000000E+00  0.00000000E+00
  0.00000000E+00  0.00000000E+00  0.00000000E+00
  0.00000000E+00  0.00000000E+00  0.00000000E+00
  0.00000000E+00  0.00000000E+00  0.00000000E+00
  0.00000000E+00  0.00000000E+00  0.00000000E+00
  0.00000000E+00  0.00000000E+00  0.00000000E+00
  0.00000000E+00  0.00000000E+00  0.00000000E+00
  0.00000000E+00  0.00000000E+00  0.00000000E+00
  0.00000000E+00  0.00000000E+00  0.00000000E+00
  0.00000000E+00  0.00000000E+00  0.00000000E+00
  0.00000000E+00  0.00000000E+00  0.00000000E+00
  0.00000000E+00  0.00000000E+00  0.00000000E+00
  0.00000000E+00  0.00000000E+00  0.00000000E+00
  0.00000000E+00  0.00000000E+00  0.00000000E+00
  0.00000000E+00  0.00000000E+00  0.00000000E+00
  0.00000000E+00  0.00000000E+00  0.00000000E+00
  0.00000000E+00  0.00000000E+00  0.00000000E+00
  0.00000000E+00  0.00000000E+00  0.00000000E+00
  0.00000000E+00  0.00000000E+00  0.00000000E+00
  0.00000000E+00  0.00000000E+00  0.00000000E+00
  0.00000000E+00  0.00000000E+00  0.00000000E+00
  0.00000000E+00  0.00000000E+00  0.00000000E+00
  0.00000000E+00  0.00000000E+00  0.00000000E+00
  0.00000000E+00  0.00000000E+00  0.00000000E+00
  0.00000000E+00  0.00000000E+00  0.00000000E+00
  0.00000000E+00  0.00000000E+00  0.00000000E+00
  0.00000000E+00  0.00000000E+00  0.00000000E+00
  0.00000000E+00  0.00000000E+00  0.00000000E+00
  0.00000000E+00  0.00000000E+00  0.00000000E+00
  0.00000000E+00  0.00000000E+00  0.00000000E+00
  0.00000000E+00  0.00000000E+00  0.00000000E+00
  0.00000000E+00  0.00000000E+00  0.00000000E+00
  0.00000000E+00  0.00000000E+00  0.00000000E+00
  0.00000000E+00  0.00000000E+00  0.00000000E+00
  0.00000000E+00  0.00000000E+00  0.00000000E+00
  0.00000000E+00  0.00000000E+00  0.00000000E+00
  0.00000000E+00  0.00000000E+00  0.00000000E+00
  0.00000000E+00  0.00000000E+00  0.00000000E+00
  0.00000000E+00  0.00000000E+00  0.00000000E+00
  0.00000000E+00  0.00000000E+00  0.00000000E+00
  0.00000000E+00  0.00000000E+00  0.00000000E+00
  0.00000000E+00  0.00000000E+00  0.00000000E+00
  0.00000000E+00  0.00000000E+00  0.00000000E+00
  0.00000000E+00  0.00000000E+00  0.00000000E+00
  0.00000000E+00  0.00000000E+00  0.00000000E+00
  0.00000000E+00  0.00000000E+00  0.00000000E+00
  0.00000000E+00  0.00000000E+00  0.00000000E+00
  0.00000000E+00  0.00000000E+00  0.00000000E+00
  0.00000000E+00  0.00000000E+00  0.00000000E+00
  0.00000000E+00  0.00000000E+00  0.00000000E+00
  0.00000000E+00  0.00000000E+00  0.00000000E+00
  0.00000000E+00  0.00000000E+00  0.00000000E+00
  0.00000000E+00  0.00000000E+00  0.00000000E+00
  0.00000000E+00  0.00000000E+00  0.00000000E+00
  0.00000000E+00  0.00000000E+00  0.00000000E+00
  0.00000000E+00  0.00000000E+00  0.00000000E+00
  0.00000000E+00  0.00000000E+00  0.00000000E+00
  0.00000000E+00  0.00000000E+00  0.00000000E+00
  0.00000000E+00  0.00000000E+00  0.00000000E+00
  0.00000000E+00  0.00000000E+00  0.00000000E+00
  0.00000000E+00  0.00000000E+00  0.00000000E+00
  0.00000000E+00  0.00000000E+00  0.00000000E+00
  0.00000000E+00  0.00000000E+00  0.00000000E+00
  0.00000000E+00  0.00000000E+00  0.00000000E+00
  0.00000000E+00  0.00000000E+00  0.00000000E+00
  0.00000000E+00  0.00000000E+00  0.00000000E+00
  0.00000000E+00  0.00000000E+00  0.00000000E+00
  0.00000000E+00  0.00000000E+00  0.00000000E+00
  0.00000000E+00  0.00000000E+00  0.00000000E+00
  0.00000000E+00  0.00000000E+00  0.00000000E+00
  0.00000000E+00  0.00000000E+00  0.00000000E+00
  0.00000000E+00  0.00000000E+00  0.00000000E+00
  0.00000000E+00  0.00000000E+00  0.00000000E+00
  0.00000000E+00  0.00000000E+00  0.00000000E+00
  0.00000000E+00  0.00000000E+00  0.00000000E+00
  0.00000000E+00  0.00000000E+00  0.00000000E+00
  0.00000000E+00  0.00000000E+00  0.00000000E+00
  0.00000000E+00  0.00000000E+00  0.00000000E+00
  0.00000000E+00  0.00000000E+00  0.00000000E+00
  0.00000000E+00  0.00000000E+00  0.00000000E+00
  0.00000000E+00  0.00000000E+00  0.00000000E+00
  0.00000000E+00  0.00000000E+00  0.00000000E+00
  0.00000000E+00  0.00000000E+00  0.00000000E+00
  0.00000000E+00  0.00000000E+00  0.00000000E+00
  0.00000000E+00  0.00000000E+00  0.00000000E+00
  0.00000000E+00  0.00000000E+00  0.00000000E+00
  0.00000000E+00  0.00000000E+00  0.00000000E+00
  0.00000000E+00  0.00000000E+00  0.00000000E+00
  0.00000000E+00  0.00000000E+00  0.00000000E+00
  0.00000000E+00  0.00000000E+00  0.00000000E+00
  0.00000000E+00  0.00000000E+00  0.00000000E+00
  0.00000000E+00  0.00000000E+00  0.00000000E+00
  0.00000000E+00  0.00000000E+00  0.00000000E+00
  0.00000000E+00  0.00000000E+00  0.00000000E+00
  0.00000000E+00  0.00000000E+00  0.00000000E+00
  0.00000000E+00  0.00000000E+00  0.00000000E+00
  0.00000000E+00  0.00000000E+00  0.00000000E+00
  0.00000000E+00  0.00000000E+00  0.00000000E+00
  0.00000000E+00  0.00000000E+00  0.00000000E+00
  0.00000000E+00  0.00000000E+00  0.00000000E+00
  0.00000000E+00  0.00000000E+00  0.00000000E+00
  0.00000000E+00  0.00000000E+00  0.00000000E+00
  0.00000000E+00  0.00000000E+00  0.00000000E+00
  0.00000000E+00  0.00000000E+00  0.00000000E+00
  0.00000000E+00  0.00000000E+00  0.00000000E+00
  0.00000000E+00  0.00000000E+00  0.00000000E+00
  0.00000000E+00  0.00000000E+00  0.00000000E+00
  0.00000000E+00  0.00000000E+00  0.00000000E+00
  0.00000000E+00  0.00000000E+00  0.00000000E+00
  0.00000000E+00  0.00000000E+00  0.00000000E+00
  0.00000000E+00  0.00000000E+00  0.00000000E+00
  0.00000000E+00  0.00000000E+00  0.00000000E+00
  0.00000000E+00  0.00000000E+00  0.00000000E+00
  0.00000000E+00  0.00000000E+00  0.00000000E+00
  0.00000000E+00  0.00000000E+00  0.00000000E+00
  0.00000000E+00  0.00000000E+00  0.00000000E+00
  0.00000000E+00  0.00000000E+00  0.00000000E+00
  0.00000000E+00  0.00000000E+00  0.00000000E+00
  0.00000000E+00  0.00000000E+00  0.00000000E+00
  0.00000000E+00  0.00000000E+00  0.00000000E+00
  0.00000000E+00  0.00000000E+00  0.00000000E+00
  0.00000000E+00  0.00000000E+00  0.00000000E+00
  0.00000000E+00  0.00000000E+00  0.00000000E+00
  0.00000000E+00  0.00000000E+00  0.00000000E+00
  0.00000000E+00  0.00000000E+00  0.00000000E+00
  0.00000000E+00  0.00000000E+00  0.00000000E+00
  0.00000000E+00  0.00000000E+00  0.00000000E+00
  0.00000000E+00  0.00000000E+00  0.00000000E+00
  0.00000000E+00  0.00000000E+00  0.00000000E+00
  0.00000000E+00  0.00000000E+00  0.00000000E+00
  0.00000000E+00  0.00000000E+00  0.00000000E+00
  0.00000000E+00  0.00000000E+00  0.00000000E+00
  0.00000000E+00  0.00000000E+00  0.00000000E+00
  0.00000000E+00  0.00000000E+00  0.00000000E+00
  0.00000000E+00  0.00000000E+00  0.00000000E+00
  0.00000000E+00  0.00000000E+00  0.00000000E+00
